c *********************************
c * Circuit generated by BenCGen
c *
c * CarrySkipAdder_94_94_94_InOut_G4T
c *
c * Ports with 1 gate(s): 26
c * Ports with 2 gate(s): 520
c * Ports with 4 gate(s): 23
c * Total gates: 569
c *********************************
p cnf 757 1915
1 285 0
-1 -285 0
1 -284 0
285 -284 0
-1 -285 284 0
1 95 -288 0
-1 95 288 0
1 -95 288 0
-1 -95 -288 0
288 284 -189 0
-288 284 189 0
288 -284 189 0
-288 -284 -189 0
284 -289 0
288 -289 0
-284 -288 289 0
95 -290 0
1 -290 0
-95 -1 290 0
-289 287 0
-290 287 0
289 290 -287 0
2 96 -292 0
-2 96 292 0
2 -96 292 0
-2 -96 -292 0
292 287 -190 0
-292 287 190 0
292 -287 190 0
-292 -287 -190 0
287 -293 0
292 -293 0
-287 -292 293 0
96 -294 0
2 -294 0
-96 -2 294 0
-293 291 0
-294 291 0
293 294 -291 0
3 97 -296 0
-3 97 296 0
3 -97 296 0
-3 -97 -296 0
296 291 -191 0
-296 291 191 0
296 -291 191 0
-296 -291 -191 0
291 -297 0
296 -297 0
-291 -296 297 0
97 -298 0
3 -298 0
-97 -3 298 0
-297 295 0
-298 295 0
297 298 -295 0
4 98 -299 0
-4 98 299 0
4 -98 299 0
-4 -98 -299 0
299 295 -192 0
-299 295 192 0
299 -295 192 0
-299 -295 -192 0
295 -300 0
299 -300 0
-295 -299 300 0
98 -301 0
4 -301 0
-98 -4 301 0
-300 286 0
-301 286 0
300 301 -286 0
288 -302 0
292 -302 0
296 -302 0
299 -302 0
-288 -292 -296 -299 302 0
301 -303 0
-301 303 0
284 -304 0
302 -304 0
-284 -302 304 0
-304 305 0
-286 305 0
304 286 -305 0
5 99 -308 0
-5 99 308 0
5 -99 308 0
-5 -99 -308 0
308 305 -193 0
-308 305 193 0
308 -305 193 0
-308 -305 -193 0
305 -309 0
308 -309 0
-305 -308 309 0
99 -310 0
5 -310 0
-99 -5 310 0
-309 307 0
-310 307 0
309 310 -307 0
6 100 -312 0
-6 100 312 0
6 -100 312 0
-6 -100 -312 0
312 307 -194 0
-312 307 194 0
312 -307 194 0
-312 -307 -194 0
307 -313 0
312 -313 0
-307 -312 313 0
100 -314 0
6 -314 0
-100 -6 314 0
-313 311 0
-314 311 0
313 314 -311 0
7 101 -316 0
-7 101 316 0
7 -101 316 0
-7 -101 -316 0
316 311 -195 0
-316 311 195 0
316 -311 195 0
-316 -311 -195 0
311 -317 0
316 -317 0
-311 -316 317 0
101 -318 0
7 -318 0
-101 -7 318 0
-317 315 0
-318 315 0
317 318 -315 0
8 102 -319 0
-8 102 319 0
8 -102 319 0
-8 -102 -319 0
319 315 -196 0
-319 315 196 0
319 -315 196 0
-319 -315 -196 0
315 -320 0
319 -320 0
-315 -319 320 0
102 -321 0
8 -321 0
-102 -8 321 0
-320 306 0
-321 306 0
320 321 -306 0
308 -322 0
312 -322 0
316 -322 0
319 -322 0
-308 -312 -316 -319 322 0
321 -323 0
-321 323 0
305 -324 0
322 -324 0
-305 -322 324 0
-324 325 0
-306 325 0
324 306 -325 0
9 103 -328 0
-9 103 328 0
9 -103 328 0
-9 -103 -328 0
328 325 -197 0
-328 325 197 0
328 -325 197 0
-328 -325 -197 0
325 -329 0
328 -329 0
-325 -328 329 0
103 -330 0
9 -330 0
-103 -9 330 0
-329 327 0
-330 327 0
329 330 -327 0
10 104 -332 0
-10 104 332 0
10 -104 332 0
-10 -104 -332 0
332 327 -198 0
-332 327 198 0
332 -327 198 0
-332 -327 -198 0
327 -333 0
332 -333 0
-327 -332 333 0
104 -334 0
10 -334 0
-104 -10 334 0
-333 331 0
-334 331 0
333 334 -331 0
11 105 -336 0
-11 105 336 0
11 -105 336 0
-11 -105 -336 0
336 331 -199 0
-336 331 199 0
336 -331 199 0
-336 -331 -199 0
331 -337 0
336 -337 0
-331 -336 337 0
105 -338 0
11 -338 0
-105 -11 338 0
-337 335 0
-338 335 0
337 338 -335 0
12 106 -339 0
-12 106 339 0
12 -106 339 0
-12 -106 -339 0
339 335 -200 0
-339 335 200 0
339 -335 200 0
-339 -335 -200 0
335 -340 0
339 -340 0
-335 -339 340 0
106 -341 0
12 -341 0
-106 -12 341 0
-340 326 0
-341 326 0
340 341 -326 0
328 -342 0
332 -342 0
336 -342 0
339 -342 0
-328 -332 -336 -339 342 0
341 -343 0
-341 343 0
325 -344 0
342 -344 0
-325 -342 344 0
-344 345 0
-326 345 0
344 326 -345 0
13 107 -348 0
-13 107 348 0
13 -107 348 0
-13 -107 -348 0
348 345 -201 0
-348 345 201 0
348 -345 201 0
-348 -345 -201 0
345 -349 0
348 -349 0
-345 -348 349 0
107 -350 0
13 -350 0
-107 -13 350 0
-349 347 0
-350 347 0
349 350 -347 0
14 108 -352 0
-14 108 352 0
14 -108 352 0
-14 -108 -352 0
352 347 -202 0
-352 347 202 0
352 -347 202 0
-352 -347 -202 0
347 -353 0
352 -353 0
-347 -352 353 0
108 -354 0
14 -354 0
-108 -14 354 0
-353 351 0
-354 351 0
353 354 -351 0
15 109 -356 0
-15 109 356 0
15 -109 356 0
-15 -109 -356 0
356 351 -203 0
-356 351 203 0
356 -351 203 0
-356 -351 -203 0
351 -357 0
356 -357 0
-351 -356 357 0
109 -358 0
15 -358 0
-109 -15 358 0
-357 355 0
-358 355 0
357 358 -355 0
16 110 -359 0
-16 110 359 0
16 -110 359 0
-16 -110 -359 0
359 355 -204 0
-359 355 204 0
359 -355 204 0
-359 -355 -204 0
355 -360 0
359 -360 0
-355 -359 360 0
110 -361 0
16 -361 0
-110 -16 361 0
-360 346 0
-361 346 0
360 361 -346 0
348 -362 0
352 -362 0
356 -362 0
359 -362 0
-348 -352 -356 -359 362 0
361 -363 0
-361 363 0
345 -364 0
362 -364 0
-345 -362 364 0
-364 365 0
-346 365 0
364 346 -365 0
17 111 -368 0
-17 111 368 0
17 -111 368 0
-17 -111 -368 0
368 365 -205 0
-368 365 205 0
368 -365 205 0
-368 -365 -205 0
365 -369 0
368 -369 0
-365 -368 369 0
111 -370 0
17 -370 0
-111 -17 370 0
-369 367 0
-370 367 0
369 370 -367 0
18 112 -372 0
-18 112 372 0
18 -112 372 0
-18 -112 -372 0
372 367 -206 0
-372 367 206 0
372 -367 206 0
-372 -367 -206 0
367 -373 0
372 -373 0
-367 -372 373 0
112 -374 0
18 -374 0
-112 -18 374 0
-373 371 0
-374 371 0
373 374 -371 0
19 113 -376 0
-19 113 376 0
19 -113 376 0
-19 -113 -376 0
376 371 -207 0
-376 371 207 0
376 -371 207 0
-376 -371 -207 0
371 -377 0
376 -377 0
-371 -376 377 0
113 -378 0
19 -378 0
-113 -19 378 0
-377 375 0
-378 375 0
377 378 -375 0
20 114 -379 0
-20 114 379 0
20 -114 379 0
-20 -114 -379 0
379 375 -208 0
-379 375 208 0
379 -375 208 0
-379 -375 -208 0
375 -380 0
379 -380 0
-375 -379 380 0
114 -381 0
20 -381 0
-114 -20 381 0
-380 366 0
-381 366 0
380 381 -366 0
368 -382 0
372 -382 0
376 -382 0
379 -382 0
-368 -372 -376 -379 382 0
381 -383 0
-381 383 0
365 -384 0
382 -384 0
-365 -382 384 0
-384 385 0
-366 385 0
384 366 -385 0
21 115 -388 0
-21 115 388 0
21 -115 388 0
-21 -115 -388 0
388 385 -209 0
-388 385 209 0
388 -385 209 0
-388 -385 -209 0
385 -389 0
388 -389 0
-385 -388 389 0
115 -390 0
21 -390 0
-115 -21 390 0
-389 387 0
-390 387 0
389 390 -387 0
22 116 -392 0
-22 116 392 0
22 -116 392 0
-22 -116 -392 0
392 387 -210 0
-392 387 210 0
392 -387 210 0
-392 -387 -210 0
387 -393 0
392 -393 0
-387 -392 393 0
116 -394 0
22 -394 0
-116 -22 394 0
-393 391 0
-394 391 0
393 394 -391 0
23 117 -396 0
-23 117 396 0
23 -117 396 0
-23 -117 -396 0
396 391 -211 0
-396 391 211 0
396 -391 211 0
-396 -391 -211 0
391 -397 0
396 -397 0
-391 -396 397 0
117 -398 0
23 -398 0
-117 -23 398 0
-397 395 0
-398 395 0
397 398 -395 0
24 118 -399 0
-24 118 399 0
24 -118 399 0
-24 -118 -399 0
399 395 -212 0
-399 395 212 0
399 -395 212 0
-399 -395 -212 0
395 -400 0
399 -400 0
-395 -399 400 0
118 -401 0
24 -401 0
-118 -24 401 0
-400 386 0
-401 386 0
400 401 -386 0
388 -402 0
392 -402 0
396 -402 0
399 -402 0
-388 -392 -396 -399 402 0
401 -403 0
-401 403 0
385 -404 0
402 -404 0
-385 -402 404 0
-404 405 0
-386 405 0
404 386 -405 0
25 119 -408 0
-25 119 408 0
25 -119 408 0
-25 -119 -408 0
408 405 -213 0
-408 405 213 0
408 -405 213 0
-408 -405 -213 0
405 -409 0
408 -409 0
-405 -408 409 0
119 -410 0
25 -410 0
-119 -25 410 0
-409 407 0
-410 407 0
409 410 -407 0
26 120 -412 0
-26 120 412 0
26 -120 412 0
-26 -120 -412 0
412 407 -214 0
-412 407 214 0
412 -407 214 0
-412 -407 -214 0
407 -413 0
412 -413 0
-407 -412 413 0
120 -414 0
26 -414 0
-120 -26 414 0
-413 411 0
-414 411 0
413 414 -411 0
27 121 -416 0
-27 121 416 0
27 -121 416 0
-27 -121 -416 0
416 411 -215 0
-416 411 215 0
416 -411 215 0
-416 -411 -215 0
411 -417 0
416 -417 0
-411 -416 417 0
121 -418 0
27 -418 0
-121 -27 418 0
-417 415 0
-418 415 0
417 418 -415 0
28 122 -419 0
-28 122 419 0
28 -122 419 0
-28 -122 -419 0
419 415 -216 0
-419 415 216 0
419 -415 216 0
-419 -415 -216 0
415 -420 0
419 -420 0
-415 -419 420 0
122 -421 0
28 -421 0
-122 -28 421 0
-420 406 0
-421 406 0
420 421 -406 0
408 -422 0
412 -422 0
416 -422 0
419 -422 0
-408 -412 -416 -419 422 0
421 -423 0
-421 423 0
405 -424 0
422 -424 0
-405 -422 424 0
-424 425 0
-406 425 0
424 406 -425 0
29 123 -428 0
-29 123 428 0
29 -123 428 0
-29 -123 -428 0
428 425 -217 0
-428 425 217 0
428 -425 217 0
-428 -425 -217 0
425 -429 0
428 -429 0
-425 -428 429 0
123 -430 0
29 -430 0
-123 -29 430 0
-429 427 0
-430 427 0
429 430 -427 0
30 124 -432 0
-30 124 432 0
30 -124 432 0
-30 -124 -432 0
432 427 -218 0
-432 427 218 0
432 -427 218 0
-432 -427 -218 0
427 -433 0
432 -433 0
-427 -432 433 0
124 -434 0
30 -434 0
-124 -30 434 0
-433 431 0
-434 431 0
433 434 -431 0
31 125 -436 0
-31 125 436 0
31 -125 436 0
-31 -125 -436 0
436 431 -219 0
-436 431 219 0
436 -431 219 0
-436 -431 -219 0
431 -437 0
436 -437 0
-431 -436 437 0
125 -438 0
31 -438 0
-125 -31 438 0
-437 435 0
-438 435 0
437 438 -435 0
32 126 -439 0
-32 126 439 0
32 -126 439 0
-32 -126 -439 0
439 435 -220 0
-439 435 220 0
439 -435 220 0
-439 -435 -220 0
435 -440 0
439 -440 0
-435 -439 440 0
126 -441 0
32 -441 0
-126 -32 441 0
-440 426 0
-441 426 0
440 441 -426 0
428 -442 0
432 -442 0
436 -442 0
439 -442 0
-428 -432 -436 -439 442 0
441 -443 0
-441 443 0
425 -444 0
442 -444 0
-425 -442 444 0
-444 445 0
-426 445 0
444 426 -445 0
33 127 -448 0
-33 127 448 0
33 -127 448 0
-33 -127 -448 0
448 445 -221 0
-448 445 221 0
448 -445 221 0
-448 -445 -221 0
445 -449 0
448 -449 0
-445 -448 449 0
127 -450 0
33 -450 0
-127 -33 450 0
-449 447 0
-450 447 0
449 450 -447 0
34 128 -452 0
-34 128 452 0
34 -128 452 0
-34 -128 -452 0
452 447 -222 0
-452 447 222 0
452 -447 222 0
-452 -447 -222 0
447 -453 0
452 -453 0
-447 -452 453 0
128 -454 0
34 -454 0
-128 -34 454 0
-453 451 0
-454 451 0
453 454 -451 0
35 129 -456 0
-35 129 456 0
35 -129 456 0
-35 -129 -456 0
456 451 -223 0
-456 451 223 0
456 -451 223 0
-456 -451 -223 0
451 -457 0
456 -457 0
-451 -456 457 0
129 -458 0
35 -458 0
-129 -35 458 0
-457 455 0
-458 455 0
457 458 -455 0
36 130 -459 0
-36 130 459 0
36 -130 459 0
-36 -130 -459 0
459 455 -224 0
-459 455 224 0
459 -455 224 0
-459 -455 -224 0
455 -460 0
459 -460 0
-455 -459 460 0
130 -461 0
36 -461 0
-130 -36 461 0
-460 446 0
-461 446 0
460 461 -446 0
448 -462 0
452 -462 0
456 -462 0
459 -462 0
-448 -452 -456 -459 462 0
461 -463 0
-461 463 0
445 -464 0
462 -464 0
-445 -462 464 0
-464 465 0
-446 465 0
464 446 -465 0
37 131 -468 0
-37 131 468 0
37 -131 468 0
-37 -131 -468 0
468 465 -225 0
-468 465 225 0
468 -465 225 0
-468 -465 -225 0
465 -469 0
468 -469 0
-465 -468 469 0
131 -470 0
37 -470 0
-131 -37 470 0
-469 467 0
-470 467 0
469 470 -467 0
38 132 -472 0
-38 132 472 0
38 -132 472 0
-38 -132 -472 0
472 467 -226 0
-472 467 226 0
472 -467 226 0
-472 -467 -226 0
467 -473 0
472 -473 0
-467 -472 473 0
132 -474 0
38 -474 0
-132 -38 474 0
-473 471 0
-474 471 0
473 474 -471 0
39 133 -476 0
-39 133 476 0
39 -133 476 0
-39 -133 -476 0
476 471 -227 0
-476 471 227 0
476 -471 227 0
-476 -471 -227 0
471 -477 0
476 -477 0
-471 -476 477 0
133 -478 0
39 -478 0
-133 -39 478 0
-477 475 0
-478 475 0
477 478 -475 0
40 134 -479 0
-40 134 479 0
40 -134 479 0
-40 -134 -479 0
479 475 -228 0
-479 475 228 0
479 -475 228 0
-479 -475 -228 0
475 -480 0
479 -480 0
-475 -479 480 0
134 -481 0
40 -481 0
-134 -40 481 0
-480 466 0
-481 466 0
480 481 -466 0
468 -482 0
472 -482 0
476 -482 0
479 -482 0
-468 -472 -476 -479 482 0
481 -483 0
-481 483 0
465 -484 0
482 -484 0
-465 -482 484 0
-484 485 0
-466 485 0
484 466 -485 0
41 135 -488 0
-41 135 488 0
41 -135 488 0
-41 -135 -488 0
488 485 -229 0
-488 485 229 0
488 -485 229 0
-488 -485 -229 0
485 -489 0
488 -489 0
-485 -488 489 0
135 -490 0
41 -490 0
-135 -41 490 0
-489 487 0
-490 487 0
489 490 -487 0
42 136 -492 0
-42 136 492 0
42 -136 492 0
-42 -136 -492 0
492 487 -230 0
-492 487 230 0
492 -487 230 0
-492 -487 -230 0
487 -493 0
492 -493 0
-487 -492 493 0
136 -494 0
42 -494 0
-136 -42 494 0
-493 491 0
-494 491 0
493 494 -491 0
43 137 -496 0
-43 137 496 0
43 -137 496 0
-43 -137 -496 0
496 491 -231 0
-496 491 231 0
496 -491 231 0
-496 -491 -231 0
491 -497 0
496 -497 0
-491 -496 497 0
137 -498 0
43 -498 0
-137 -43 498 0
-497 495 0
-498 495 0
497 498 -495 0
44 138 -499 0
-44 138 499 0
44 -138 499 0
-44 -138 -499 0
499 495 -232 0
-499 495 232 0
499 -495 232 0
-499 -495 -232 0
495 -500 0
499 -500 0
-495 -499 500 0
138 -501 0
44 -501 0
-138 -44 501 0
-500 486 0
-501 486 0
500 501 -486 0
488 -502 0
492 -502 0
496 -502 0
499 -502 0
-488 -492 -496 -499 502 0
501 -503 0
-501 503 0
485 -504 0
502 -504 0
-485 -502 504 0
-504 505 0
-486 505 0
504 486 -505 0
45 139 -508 0
-45 139 508 0
45 -139 508 0
-45 -139 -508 0
508 505 -233 0
-508 505 233 0
508 -505 233 0
-508 -505 -233 0
505 -509 0
508 -509 0
-505 -508 509 0
139 -510 0
45 -510 0
-139 -45 510 0
-509 507 0
-510 507 0
509 510 -507 0
46 140 -512 0
-46 140 512 0
46 -140 512 0
-46 -140 -512 0
512 507 -234 0
-512 507 234 0
512 -507 234 0
-512 -507 -234 0
507 -513 0
512 -513 0
-507 -512 513 0
140 -514 0
46 -514 0
-140 -46 514 0
-513 511 0
-514 511 0
513 514 -511 0
47 141 -516 0
-47 141 516 0
47 -141 516 0
-47 -141 -516 0
516 511 -235 0
-516 511 235 0
516 -511 235 0
-516 -511 -235 0
511 -517 0
516 -517 0
-511 -516 517 0
141 -518 0
47 -518 0
-141 -47 518 0
-517 515 0
-518 515 0
517 518 -515 0
48 142 -519 0
-48 142 519 0
48 -142 519 0
-48 -142 -519 0
519 515 -236 0
-519 515 236 0
519 -515 236 0
-519 -515 -236 0
515 -520 0
519 -520 0
-515 -519 520 0
142 -521 0
48 -521 0
-142 -48 521 0
-520 506 0
-521 506 0
520 521 -506 0
508 -522 0
512 -522 0
516 -522 0
519 -522 0
-508 -512 -516 -519 522 0
521 -523 0
-521 523 0
505 -524 0
522 -524 0
-505 -522 524 0
-524 525 0
-506 525 0
524 506 -525 0
49 143 -528 0
-49 143 528 0
49 -143 528 0
-49 -143 -528 0
528 525 -237 0
-528 525 237 0
528 -525 237 0
-528 -525 -237 0
525 -529 0
528 -529 0
-525 -528 529 0
143 -530 0
49 -530 0
-143 -49 530 0
-529 527 0
-530 527 0
529 530 -527 0
50 144 -532 0
-50 144 532 0
50 -144 532 0
-50 -144 -532 0
532 527 -238 0
-532 527 238 0
532 -527 238 0
-532 -527 -238 0
527 -533 0
532 -533 0
-527 -532 533 0
144 -534 0
50 -534 0
-144 -50 534 0
-533 531 0
-534 531 0
533 534 -531 0
51 145 -536 0
-51 145 536 0
51 -145 536 0
-51 -145 -536 0
536 531 -239 0
-536 531 239 0
536 -531 239 0
-536 -531 -239 0
531 -537 0
536 -537 0
-531 -536 537 0
145 -538 0
51 -538 0
-145 -51 538 0
-537 535 0
-538 535 0
537 538 -535 0
52 146 -539 0
-52 146 539 0
52 -146 539 0
-52 -146 -539 0
539 535 -240 0
-539 535 240 0
539 -535 240 0
-539 -535 -240 0
535 -540 0
539 -540 0
-535 -539 540 0
146 -541 0
52 -541 0
-146 -52 541 0
-540 526 0
-541 526 0
540 541 -526 0
528 -542 0
532 -542 0
536 -542 0
539 -542 0
-528 -532 -536 -539 542 0
541 -543 0
-541 543 0
525 -544 0
542 -544 0
-525 -542 544 0
-544 545 0
-526 545 0
544 526 -545 0
53 147 -548 0
-53 147 548 0
53 -147 548 0
-53 -147 -548 0
548 545 -241 0
-548 545 241 0
548 -545 241 0
-548 -545 -241 0
545 -549 0
548 -549 0
-545 -548 549 0
147 -550 0
53 -550 0
-147 -53 550 0
-549 547 0
-550 547 0
549 550 -547 0
54 148 -552 0
-54 148 552 0
54 -148 552 0
-54 -148 -552 0
552 547 -242 0
-552 547 242 0
552 -547 242 0
-552 -547 -242 0
547 -553 0
552 -553 0
-547 -552 553 0
148 -554 0
54 -554 0
-148 -54 554 0
-553 551 0
-554 551 0
553 554 -551 0
55 149 -556 0
-55 149 556 0
55 -149 556 0
-55 -149 -556 0
556 551 -243 0
-556 551 243 0
556 -551 243 0
-556 -551 -243 0
551 -557 0
556 -557 0
-551 -556 557 0
149 -558 0
55 -558 0
-149 -55 558 0
-557 555 0
-558 555 0
557 558 -555 0
56 150 -559 0
-56 150 559 0
56 -150 559 0
-56 -150 -559 0
559 555 -244 0
-559 555 244 0
559 -555 244 0
-559 -555 -244 0
555 -560 0
559 -560 0
-555 -559 560 0
150 -561 0
56 -561 0
-150 -56 561 0
-560 546 0
-561 546 0
560 561 -546 0
548 -562 0
552 -562 0
556 -562 0
559 -562 0
-548 -552 -556 -559 562 0
561 -563 0
-561 563 0
545 -564 0
562 -564 0
-545 -562 564 0
-564 565 0
-546 565 0
564 546 -565 0
57 151 -568 0
-57 151 568 0
57 -151 568 0
-57 -151 -568 0
568 565 -245 0
-568 565 245 0
568 -565 245 0
-568 -565 -245 0
565 -569 0
568 -569 0
-565 -568 569 0
151 -570 0
57 -570 0
-151 -57 570 0
-569 567 0
-570 567 0
569 570 -567 0
58 152 -572 0
-58 152 572 0
58 -152 572 0
-58 -152 -572 0
572 567 -246 0
-572 567 246 0
572 -567 246 0
-572 -567 -246 0
567 -573 0
572 -573 0
-567 -572 573 0
152 -574 0
58 -574 0
-152 -58 574 0
-573 571 0
-574 571 0
573 574 -571 0
59 153 -576 0
-59 153 576 0
59 -153 576 0
-59 -153 -576 0
576 571 -247 0
-576 571 247 0
576 -571 247 0
-576 -571 -247 0
571 -577 0
576 -577 0
-571 -576 577 0
153 -578 0
59 -578 0
-153 -59 578 0
-577 575 0
-578 575 0
577 578 -575 0
60 154 -579 0
-60 154 579 0
60 -154 579 0
-60 -154 -579 0
579 575 -248 0
-579 575 248 0
579 -575 248 0
-579 -575 -248 0
575 -580 0
579 -580 0
-575 -579 580 0
154 -581 0
60 -581 0
-154 -60 581 0
-580 566 0
-581 566 0
580 581 -566 0
568 -582 0
572 -582 0
576 -582 0
579 -582 0
-568 -572 -576 -579 582 0
581 -583 0
-581 583 0
565 -584 0
582 -584 0
-565 -582 584 0
-584 585 0
-566 585 0
584 566 -585 0
61 155 -588 0
-61 155 588 0
61 -155 588 0
-61 -155 -588 0
588 585 -249 0
-588 585 249 0
588 -585 249 0
-588 -585 -249 0
585 -589 0
588 -589 0
-585 -588 589 0
155 -590 0
61 -590 0
-155 -61 590 0
-589 587 0
-590 587 0
589 590 -587 0
62 156 -592 0
-62 156 592 0
62 -156 592 0
-62 -156 -592 0
592 587 -250 0
-592 587 250 0
592 -587 250 0
-592 -587 -250 0
587 -593 0
592 -593 0
-587 -592 593 0
156 -594 0
62 -594 0
-156 -62 594 0
-593 591 0
-594 591 0
593 594 -591 0
63 157 -596 0
-63 157 596 0
63 -157 596 0
-63 -157 -596 0
596 591 -251 0
-596 591 251 0
596 -591 251 0
-596 -591 -251 0
591 -597 0
596 -597 0
-591 -596 597 0
157 -598 0
63 -598 0
-157 -63 598 0
-597 595 0
-598 595 0
597 598 -595 0
64 158 -599 0
-64 158 599 0
64 -158 599 0
-64 -158 -599 0
599 595 -252 0
-599 595 252 0
599 -595 252 0
-599 -595 -252 0
595 -600 0
599 -600 0
-595 -599 600 0
158 -601 0
64 -601 0
-158 -64 601 0
-600 586 0
-601 586 0
600 601 -586 0
588 -602 0
592 -602 0
596 -602 0
599 -602 0
-588 -592 -596 -599 602 0
601 -603 0
-601 603 0
585 -604 0
602 -604 0
-585 -602 604 0
-604 605 0
-586 605 0
604 586 -605 0
65 159 -608 0
-65 159 608 0
65 -159 608 0
-65 -159 -608 0
608 605 -253 0
-608 605 253 0
608 -605 253 0
-608 -605 -253 0
605 -609 0
608 -609 0
-605 -608 609 0
159 -610 0
65 -610 0
-159 -65 610 0
-609 607 0
-610 607 0
609 610 -607 0
66 160 -612 0
-66 160 612 0
66 -160 612 0
-66 -160 -612 0
612 607 -254 0
-612 607 254 0
612 -607 254 0
-612 -607 -254 0
607 -613 0
612 -613 0
-607 -612 613 0
160 -614 0
66 -614 0
-160 -66 614 0
-613 611 0
-614 611 0
613 614 -611 0
67 161 -616 0
-67 161 616 0
67 -161 616 0
-67 -161 -616 0
616 611 -255 0
-616 611 255 0
616 -611 255 0
-616 -611 -255 0
611 -617 0
616 -617 0
-611 -616 617 0
161 -618 0
67 -618 0
-161 -67 618 0
-617 615 0
-618 615 0
617 618 -615 0
68 162 -619 0
-68 162 619 0
68 -162 619 0
-68 -162 -619 0
619 615 -256 0
-619 615 256 0
619 -615 256 0
-619 -615 -256 0
615 -620 0
619 -620 0
-615 -619 620 0
162 -621 0
68 -621 0
-162 -68 621 0
-620 606 0
-621 606 0
620 621 -606 0
608 -622 0
612 -622 0
616 -622 0
619 -622 0
-608 -612 -616 -619 622 0
621 -623 0
-621 623 0
605 -624 0
622 -624 0
-605 -622 624 0
-624 625 0
-606 625 0
624 606 -625 0
69 163 -628 0
-69 163 628 0
69 -163 628 0
-69 -163 -628 0
628 625 -257 0
-628 625 257 0
628 -625 257 0
-628 -625 -257 0
625 -629 0
628 -629 0
-625 -628 629 0
163 -630 0
69 -630 0
-163 -69 630 0
-629 627 0
-630 627 0
629 630 -627 0
70 164 -632 0
-70 164 632 0
70 -164 632 0
-70 -164 -632 0
632 627 -258 0
-632 627 258 0
632 -627 258 0
-632 -627 -258 0
627 -633 0
632 -633 0
-627 -632 633 0
164 -634 0
70 -634 0
-164 -70 634 0
-633 631 0
-634 631 0
633 634 -631 0
71 165 -636 0
-71 165 636 0
71 -165 636 0
-71 -165 -636 0
636 631 -259 0
-636 631 259 0
636 -631 259 0
-636 -631 -259 0
631 -637 0
636 -637 0
-631 -636 637 0
165 -638 0
71 -638 0
-165 -71 638 0
-637 635 0
-638 635 0
637 638 -635 0
72 166 -639 0
-72 166 639 0
72 -166 639 0
-72 -166 -639 0
639 635 -260 0
-639 635 260 0
639 -635 260 0
-639 -635 -260 0
635 -640 0
639 -640 0
-635 -639 640 0
166 -641 0
72 -641 0
-166 -72 641 0
-640 626 0
-641 626 0
640 641 -626 0
628 -642 0
632 -642 0
636 -642 0
639 -642 0
-628 -632 -636 -639 642 0
641 -643 0
-641 643 0
625 -644 0
642 -644 0
-625 -642 644 0
-644 645 0
-626 645 0
644 626 -645 0
73 167 -648 0
-73 167 648 0
73 -167 648 0
-73 -167 -648 0
648 645 -261 0
-648 645 261 0
648 -645 261 0
-648 -645 -261 0
645 -649 0
648 -649 0
-645 -648 649 0
167 -650 0
73 -650 0
-167 -73 650 0
-649 647 0
-650 647 0
649 650 -647 0
74 168 -652 0
-74 168 652 0
74 -168 652 0
-74 -168 -652 0
652 647 -262 0
-652 647 262 0
652 -647 262 0
-652 -647 -262 0
647 -653 0
652 -653 0
-647 -652 653 0
168 -654 0
74 -654 0
-168 -74 654 0
-653 651 0
-654 651 0
653 654 -651 0
75 169 -656 0
-75 169 656 0
75 -169 656 0
-75 -169 -656 0
656 651 -263 0
-656 651 263 0
656 -651 263 0
-656 -651 -263 0
651 -657 0
656 -657 0
-651 -656 657 0
169 -658 0
75 -658 0
-169 -75 658 0
-657 655 0
-658 655 0
657 658 -655 0
76 170 -659 0
-76 170 659 0
76 -170 659 0
-76 -170 -659 0
659 655 -264 0
-659 655 264 0
659 -655 264 0
-659 -655 -264 0
655 -660 0
659 -660 0
-655 -659 660 0
170 -661 0
76 -661 0
-170 -76 661 0
-660 646 0
-661 646 0
660 661 -646 0
648 -662 0
652 -662 0
656 -662 0
659 -662 0
-648 -652 -656 -659 662 0
661 -663 0
-661 663 0
645 -664 0
662 -664 0
-645 -662 664 0
-664 665 0
-646 665 0
664 646 -665 0
77 171 -668 0
-77 171 668 0
77 -171 668 0
-77 -171 -668 0
668 665 -265 0
-668 665 265 0
668 -665 265 0
-668 -665 -265 0
665 -669 0
668 -669 0
-665 -668 669 0
171 -670 0
77 -670 0
-171 -77 670 0
-669 667 0
-670 667 0
669 670 -667 0
78 172 -672 0
-78 172 672 0
78 -172 672 0
-78 -172 -672 0
672 667 -266 0
-672 667 266 0
672 -667 266 0
-672 -667 -266 0
667 -673 0
672 -673 0
-667 -672 673 0
172 -674 0
78 -674 0
-172 -78 674 0
-673 671 0
-674 671 0
673 674 -671 0
79 173 -676 0
-79 173 676 0
79 -173 676 0
-79 -173 -676 0
676 671 -267 0
-676 671 267 0
676 -671 267 0
-676 -671 -267 0
671 -677 0
676 -677 0
-671 -676 677 0
173 -678 0
79 -678 0
-173 -79 678 0
-677 675 0
-678 675 0
677 678 -675 0
80 174 -679 0
-80 174 679 0
80 -174 679 0
-80 -174 -679 0
679 675 -268 0
-679 675 268 0
679 -675 268 0
-679 -675 -268 0
675 -680 0
679 -680 0
-675 -679 680 0
174 -681 0
80 -681 0
-174 -80 681 0
-680 666 0
-681 666 0
680 681 -666 0
668 -682 0
672 -682 0
676 -682 0
679 -682 0
-668 -672 -676 -679 682 0
681 -683 0
-681 683 0
665 -684 0
682 -684 0
-665 -682 684 0
-684 685 0
-666 685 0
684 666 -685 0
81 175 -688 0
-81 175 688 0
81 -175 688 0
-81 -175 -688 0
688 685 -269 0
-688 685 269 0
688 -685 269 0
-688 -685 -269 0
685 -689 0
688 -689 0
-685 -688 689 0
175 -690 0
81 -690 0
-175 -81 690 0
-689 687 0
-690 687 0
689 690 -687 0
82 176 -692 0
-82 176 692 0
82 -176 692 0
-82 -176 -692 0
692 687 -270 0
-692 687 270 0
692 -687 270 0
-692 -687 -270 0
687 -693 0
692 -693 0
-687 -692 693 0
176 -694 0
82 -694 0
-176 -82 694 0
-693 691 0
-694 691 0
693 694 -691 0
83 177 -696 0
-83 177 696 0
83 -177 696 0
-83 -177 -696 0
696 691 -271 0
-696 691 271 0
696 -691 271 0
-696 -691 -271 0
691 -697 0
696 -697 0
-691 -696 697 0
177 -698 0
83 -698 0
-177 -83 698 0
-697 695 0
-698 695 0
697 698 -695 0
84 178 -699 0
-84 178 699 0
84 -178 699 0
-84 -178 -699 0
699 695 -272 0
-699 695 272 0
699 -695 272 0
-699 -695 -272 0
695 -700 0
699 -700 0
-695 -699 700 0
178 -701 0
84 -701 0
-178 -84 701 0
-700 686 0
-701 686 0
700 701 -686 0
688 -702 0
692 -702 0
696 -702 0
699 -702 0
-688 -692 -696 -699 702 0
701 -703 0
-701 703 0
685 -704 0
702 -704 0
-685 -702 704 0
-704 705 0
-686 705 0
704 686 -705 0
85 179 -708 0
-85 179 708 0
85 -179 708 0
-85 -179 -708 0
708 705 -273 0
-708 705 273 0
708 -705 273 0
-708 -705 -273 0
705 -709 0
708 -709 0
-705 -708 709 0
179 -710 0
85 -710 0
-179 -85 710 0
-709 707 0
-710 707 0
709 710 -707 0
86 180 -712 0
-86 180 712 0
86 -180 712 0
-86 -180 -712 0
712 707 -274 0
-712 707 274 0
712 -707 274 0
-712 -707 -274 0
707 -713 0
712 -713 0
-707 -712 713 0
180 -714 0
86 -714 0
-180 -86 714 0
-713 711 0
-714 711 0
713 714 -711 0
87 181 -716 0
-87 181 716 0
87 -181 716 0
-87 -181 -716 0
716 711 -275 0
-716 711 275 0
716 -711 275 0
-716 -711 -275 0
711 -717 0
716 -717 0
-711 -716 717 0
181 -718 0
87 -718 0
-181 -87 718 0
-717 715 0
-718 715 0
717 718 -715 0
88 182 -719 0
-88 182 719 0
88 -182 719 0
-88 -182 -719 0
719 715 -276 0
-719 715 276 0
719 -715 276 0
-719 -715 -276 0
715 -720 0
719 -720 0
-715 -719 720 0
182 -721 0
88 -721 0
-182 -88 721 0
-720 706 0
-721 706 0
720 721 -706 0
708 -722 0
712 -722 0
716 -722 0
719 -722 0
-708 -712 -716 -719 722 0
721 -723 0
-721 723 0
705 -724 0
722 -724 0
-705 -722 724 0
-724 725 0
-706 725 0
724 706 -725 0
89 183 -728 0
-89 183 728 0
89 -183 728 0
-89 -183 -728 0
728 725 -277 0
-728 725 277 0
728 -725 277 0
-728 -725 -277 0
725 -729 0
728 -729 0
-725 -728 729 0
183 -730 0
89 -730 0
-183 -89 730 0
-729 727 0
-730 727 0
729 730 -727 0
90 184 -732 0
-90 184 732 0
90 -184 732 0
-90 -184 -732 0
732 727 -278 0
-732 727 278 0
732 -727 278 0
-732 -727 -278 0
727 -733 0
732 -733 0
-727 -732 733 0
184 -734 0
90 -734 0
-184 -90 734 0
-733 731 0
-734 731 0
733 734 -731 0
91 185 -736 0
-91 185 736 0
91 -185 736 0
-91 -185 -736 0
736 731 -279 0
-736 731 279 0
736 -731 279 0
-736 -731 -279 0
731 -737 0
736 -737 0
-731 -736 737 0
185 -738 0
91 -738 0
-185 -91 738 0
-737 735 0
-738 735 0
737 738 -735 0
92 186 -739 0
-92 186 739 0
92 -186 739 0
-92 -186 -739 0
739 735 -280 0
-739 735 280 0
739 -735 280 0
-739 -735 -280 0
735 -740 0
739 -740 0
-735 -739 740 0
186 -741 0
92 -741 0
-186 -92 741 0
-740 726 0
-741 726 0
740 741 -726 0
728 -742 0
732 -742 0
736 -742 0
739 -742 0
-728 -732 -736 -739 742 0
741 -743 0
-741 743 0
725 -744 0
742 -744 0
-725 -742 744 0
-744 745 0
-726 745 0
744 726 -745 0
93 187 -748 0
-93 187 748 0
93 -187 748 0
-93 -187 -748 0
748 745 -281 0
-748 745 281 0
748 -745 281 0
-748 -745 -281 0
745 -749 0
748 -749 0
-745 -748 749 0
187 -750 0
93 -750 0
-187 -93 750 0
-749 747 0
-750 747 0
749 750 -747 0
94 188 -751 0
-94 188 751 0
94 -188 751 0
-94 -188 -751 0
751 747 -282 0
-751 747 282 0
751 -747 282 0
-751 -747 -282 0
747 -752 0
751 -752 0
-747 -751 752 0
188 -753 0
94 -753 0
-188 -94 753 0
-752 746 0
-753 746 0
752 753 -746 0
748 -754 0
751 -754 0
-748 -751 754 0
753 -755 0
-753 755 0
745 -756 0
754 -756 0
-745 -754 756 0
-756 757 0
-746 757 0
756 746 -757 0
757 -283 0
-757 283 0
